; DUP4 PUSH cw_2 PUSH cw_3 SWAP1 SWAP2 SWAP1 => PUSH cw_2 DUP5 PUSH cw_3
(set-option :produce-proofs true)
; 
(set-info :status unknown)
(declare-fun storage_t ((_ BitVec 256) (_ BitVec 256) (_ BitVec 256) (_ BitVec 256) (_ BitVec 256) (_ BitVec 256) Int (_ BitVec 256)) (_ BitVec 256))
(declare-fun w_3 () (_ BitVec 256))
(declare-fun w_2 () (_ BitVec 256))
(declare-fun storage_s ((_ BitVec 256) (_ BitVec 256) (_ BitVec 256) (_ BitVec 256) (_ BitVec 256) (_ BitVec 256) Int (_ BitVec 256)) (_ BitVec 256))
(declare-fun exc_halt_t (Int) Bool)
(declare-fun exc_halt_s (Int) Bool)
(declare-fun stack_t ((_ BitVec 256) (_ BitVec 256) (_ BitVec 256) (_ BitVec 256) (_ BitVec 256) (_ BitVec 256) Int (_ BitVec 6)) (_ BitVec 256))
(declare-fun stack_s ((_ BitVec 256) (_ BitVec 256) (_ BitVec 256) (_ BitVec 256) (_ BitVec 256) (_ BitVec 256) Int (_ BitVec 6)) (_ BitVec 256))
(declare-fun sc_t (Int) (_ BitVec 6))
(declare-fun sc_s (Int) (_ BitVec 6))
(declare-fun used_gas_t ((_ BitVec 256) (_ BitVec 256) (_ BitVec 256) (_ BitVec 256) (_ BitVec 256) (_ BitVec 256) Int) Int)
(declare-fun used_gas_s ((_ BitVec 256) (_ BitVec 256) (_ BitVec 256) (_ BitVec 256) (_ BitVec 256) (_ BitVec 256) Int) Int)
(assert
 (exists ((x_0 (_ BitVec 256)) (x_1 (_ BitVec 256)) (x_2 (_ BitVec 256)) (x_3 (_ BitVec 256)) )(let (($x8437 (forall ((w (_ BitVec 256)) )(let ((?x1941 (storage_t x_0 x_1 x_2 x_3 w_2 w_3 3 w)))
 (let ((?x5775 (storage_s x_0 x_1 x_2 x_3 w_2 w_3 6 w)))
 (= ?x5775 ?x1941))))
 ))
 (let (($x6783 (exc_halt_t 3)))
 (let (($x772 (exc_halt_s 6)))
 (let (($x3870 (= $x772 $x6783)))
 (let (($x7201 (forall ((n (_ BitVec 6)) )(let ((?x427 (stack_t x_0 x_1 x_2 x_3 w_2 w_3 3 n)))
 (let ((?x8194 (stack_s x_0 x_1 x_2 x_3 w_2 w_3 6 n)))
 (let (($x11168 (= ?x8194 ?x427)))
 (or (bvsle (sc_t 3) n) $x11168)))))
 ))
 (let ((?x6438 (sc_t 3)))
 (let ((?x926 (sc_s 6)))
 (let (($x5324 (= ?x926 ?x6438)))
 (let ((?x5331 (used_gas_t x_0 x_1 x_2 x_3 w_2 w_3 0)))
 (let ((?x6899 (used_gas_s x_0 x_1 x_2 x_3 w_2 w_3 0)))
 (let (($x2307 (= ?x6899 ?x5331)))
 (let (($x354 (forall ((w (_ BitVec 256)) )(let ((?x2619 (storage_t x_0 x_1 x_2 x_3 w_2 w_3 0 w)))
 (let ((?x10076 (storage_s x_0 x_1 x_2 x_3 w_2 w_3 0 w)))
 (= ?x10076 ?x2619))))
 ))
 (let (($x56 (exc_halt_t 0)))
 (let (($x57 (exc_halt_s 0)))
 (let (($x58 (= $x57 $x56)))
 (let (($x907 (forall ((n (_ BitVec 6)) )(let ((?x6698 (stack_t x_0 x_1 x_2 x_3 w_2 w_3 0 n)))
 (let ((?x5034 (stack_s x_0 x_1 x_2 x_3 w_2 w_3 0 n)))
 (let (($x8963 (= ?x5034 ?x6698)))
 (let ((?x63 (sc_t 0)))
 (let (($x7453 (bvsle ?x63 n)))
 (or $x7453 $x8963)))))))
 ))
 (let ((?x63 (sc_t 0)))
 (let ((?x72 (sc_s 0)))
 (let (($x73 (= ?x72 ?x63)))
 (let (($x8259 (not (= ((_ extract 6 6) (bvadd (_ bv1 7) (concat (_ bv0 1) (sc_t 2)))) (_ bv0 1)))))
 (let (($x5252 (exc_halt_t 2)))
 (let (($x749 (forall ((w (_ BitVec 256)) )(let ((?x6046 (storage_t x_0 x_1 x_2 x_3 w_2 w_3 2 w)))
 (let ((?x1941 (storage_t x_0 x_1 x_2 x_3 w_2 w_3 3 w)))
 (= ?x1941 ?x6046))))
 ))
 (let (($x11114 (forall ((n (_ BitVec 6)) )(let ((?x11395 (stack_t x_0 x_1 x_2 x_3 w_2 w_3 2 n)))
 (let ((?x427 (stack_t x_0 x_1 x_2 x_3 w_2 w_3 3 n)))
 (or (bvsle (sc_t 2) n) (= ?x427 ?x11395)))))
 ))
 (let (($x8645 (= ?x6438 (bvadd (_ bv1 6) (sc_t 2)))))
 (let (($x6989 (= (used_gas_t x_0 x_1 x_2 x_3 w_2 w_3 3) (+ 3 (used_gas_t x_0 x_1 x_2 x_3 w_2 w_3 2)))))
 (let (($x10750 (= (stack_t x_0 x_1 x_2 x_3 w_2 w_3 3 (sc_t 2)) w_3)))
 (let (($x3508 (exc_halt_t 1)))
 (let (($x1340 (not (= ((_ extract 6 6) (bvadd (_ bv1 7) (concat (_ bv0 1) (sc_t 1)))) (_ bv0 1)))))
 (let (($x806 (not (bvsle (_ bv0 6) (bvadd (_ bv59 6) (sc_t 1))))))
 (let (($x6881 (forall ((w (_ BitVec 256)) )(let ((?x2440 (storage_t x_0 x_1 x_2 x_3 w_2 w_3 1 w)))
 (let ((?x6046 (storage_t x_0 x_1 x_2 x_3 w_2 w_3 2 w)))
 (= ?x6046 ?x2440))))
 ))
 (let (($x10176 (forall ((n (_ BitVec 6)) )(let ((?x3404 (stack_t x_0 x_1 x_2 x_3 w_2 w_3 1 n)))
 (let ((?x11395 (stack_t x_0 x_1 x_2 x_3 w_2 w_3 2 n)))
 (let ((?x8347 (sc_t 1)))
 (let ((?x6800 (bvadd (_ bv59 6) ?x8347)))
 (let (($x6777 (bvsle ?x6800 n)))
 (or $x6777 (= ?x11395 ?x3404))))))))
 ))
 (let ((?x2714 (sc_t 2)))
 (let (($x2756 (= ?x2714 (bvadd (_ bv1 6) (sc_t 1)))))
 (let ((?x9526 (used_gas_t x_0 x_1 x_2 x_3 w_2 w_3 2)))
 (let (($x5872 (= ?x9526 (+ 3 (used_gas_t x_0 x_1 x_2 x_3 w_2 w_3 1)))))
 (let ((?x8347 (sc_t 1)))
 (let ((?x5756 (bvadd (_ bv63 6) ?x8347)))
 (let (($x2064 (= (stack_t x_0 x_1 x_2 x_3 w_2 w_3 2 ?x5756) (stack_t x_0 x_1 x_2 x_3 w_2 w_3 1 ?x5756))))
 (let (($x3532 (= (stack_t x_0 x_1 x_2 x_3 w_2 w_3 2 (bvadd (_ bv62 6) ?x8347)) (stack_t x_0 x_1 x_2 x_3 w_2 w_3 1 (bvadd (_ bv62 6) ?x8347)))))
 (let (($x4893 (= (stack_t x_0 x_1 x_2 x_3 w_2 w_3 2 (bvadd (_ bv61 6) ?x8347)) (stack_t x_0 x_1 x_2 x_3 w_2 w_3 1 (bvadd (_ bv61 6) ?x8347)))))
 (let (($x7243 (= (stack_t x_0 x_1 x_2 x_3 w_2 w_3 2 (bvadd (_ bv60 6) ?x8347)) (stack_t x_0 x_1 x_2 x_3 w_2 w_3 1 (bvadd (_ bv60 6) ?x8347)))))
 (let ((?x6800 (bvadd (_ bv59 6) ?x8347)))
 (let ((?x10060 (stack_t x_0 x_1 x_2 x_3 w_2 w_3 1 ?x6800)))
 (let (($x11759 (= (stack_t x_0 x_1 x_2 x_3 w_2 w_3 2 (bvadd (_ bv63 6) ?x2714)) ?x10060)))
 (let (($x9130 (= $x3508 (or $x56 (not (= ((_ extract 6 6) (bvadd (_ bv1 7) (concat (_ bv0 1) ?x63))) (_ bv0 1)))))))
 (let (($x5514 (forall ((w (_ BitVec 256)) )(let ((?x2619 (storage_t x_0 x_1 x_2 x_3 w_2 w_3 0 w)))
 (let ((?x2440 (storage_t x_0 x_1 x_2 x_3 w_2 w_3 1 w)))
 (= ?x2440 ?x2619))))
 ))
 (let (($x7232 (forall ((n (_ BitVec 6)) )(let ((?x63 (sc_t 0)))
 (let (($x7453 (bvsle ?x63 n)))
 (let ((?x6698 (stack_t x_0 x_1 x_2 x_3 w_2 w_3 0 n)))
 (let ((?x3404 (stack_t x_0 x_1 x_2 x_3 w_2 w_3 1 n)))
 (or (= ?x3404 ?x6698) $x7453))))))
 ))
 (let (($x6213 (= ?x8347 (bvadd (_ bv1 6) ?x63))))
 (let ((?x649 (used_gas_t x_0 x_1 x_2 x_3 w_2 w_3 1)))
 (let (($x10655 (= $x772 (or (exc_halt_s 5) (not (bvsle (_ bv0 6) (bvadd (_ bv62 6) (sc_s 5))))))))
 (let (($x2053 (forall ((w (_ BitVec 256)) )(let ((?x429 (storage_s x_0 x_1 x_2 x_3 w_2 w_3 5 w)))
 (let ((?x5775 (storage_s x_0 x_1 x_2 x_3 w_2 w_3 6 w)))
 (= ?x5775 ?x429))))
 ))
 (let (($x8909 (forall ((n (_ BitVec 6)) )(let ((?x8851 (stack_s x_0 x_1 x_2 x_3 w_2 w_3 5 n)))
 (let ((?x8194 (stack_s x_0 x_1 x_2 x_3 w_2 w_3 6 n)))
 (or (bvsle (bvadd (_ bv62 6) (sc_s 5)) n) (= ?x8194 ?x8851)))))
 ))
 (let (($x252 (= (used_gas_s x_0 x_1 x_2 x_3 w_2 w_3 6) (+ 3 (used_gas_s x_0 x_1 x_2 x_3 w_2 w_3 5)))))
 (let ((?x4319 (sc_s 5)))
 (let ((?x3503 (bvadd (_ bv63 6) ?x4319)))
 (let ((?x6259 (stack_s x_0 x_1 x_2 x_3 w_2 w_3 5 ?x3503)))
 (let (($x2512 (= (stack_s x_0 x_1 x_2 x_3 w_2 w_3 6 (bvadd (_ bv62 6) ?x926)) ?x6259)))
 (let ((?x8322 (bvadd (_ bv62 6) ?x4319)))
 (let ((?x2843 (stack_s x_0 x_1 x_2 x_3 w_2 w_3 5 ?x8322)))
 (let (($x2198 (= (stack_s x_0 x_1 x_2 x_3 w_2 w_3 6 (bvadd (_ bv63 6) ?x926)) ?x2843)))
 (let (($x11317 (exc_halt_s 5)))
 (let (($x9501 (= $x11317 (or (exc_halt_s 4) (not (bvsle (_ bv0 6) (bvadd (_ bv61 6) (sc_s 4))))))))
 (let (($x9461 (forall ((w (_ BitVec 256)) )(let ((?x7414 (storage_s x_0 x_1 x_2 x_3 w_2 w_3 4 w)))
 (let ((?x429 (storage_s x_0 x_1 x_2 x_3 w_2 w_3 5 w)))
 (= ?x429 ?x7414))))
 ))
 (let (($x1243 (forall ((n (_ BitVec 6)) )(let ((?x814 (stack_s x_0 x_1 x_2 x_3 w_2 w_3 4 n)))
 (let ((?x8851 (stack_s x_0 x_1 x_2 x_3 w_2 w_3 5 n)))
 (or (= ?x8851 ?x814) (bvsle (bvadd (_ bv61 6) (sc_s 4)) n)))))
 ))
 (let ((?x4305 (sc_s 4)))
 (let (($x15 (= ?x4319 ?x4305)))
 (let ((?x4018 (used_gas_s x_0 x_1 x_2 x_3 w_2 w_3 5)))
 (let (($x8878 (= ?x4018 (+ 3 (used_gas_s x_0 x_1 x_2 x_3 w_2 w_3 4)))))
 (let ((?x9984 (bvadd (_ bv62 6) ?x4305)))
 (let ((?x7563 (stack_s x_0 x_1 x_2 x_3 w_2 w_3 4 ?x9984)))
 (let ((?x805 (bvadd (_ bv63 6) ?x4305)))
 (let ((?x2754 (stack_s x_0 x_1 x_2 x_3 w_2 w_3 4 ?x805)))
 (let (($x7992 (= (stack_s x_0 x_1 x_2 x_3 w_2 w_3 5 (bvadd (_ bv61 6) ?x4319)) ?x2754)))
 (let (($x2241 (= ?x6259 (stack_s x_0 x_1 x_2 x_3 w_2 w_3 4 (bvadd (_ bv61 6) ?x4305)))))
 (let (($x7172 (exc_halt_s 4)))
 (let (($x7702 (= $x7172 (or (exc_halt_s 3) (not (bvsle (_ bv0 6) (bvadd (_ bv62 6) (sc_s 3))))))))
 (let (($x10837 (forall ((w (_ BitVec 256)) )(let ((?x5822 (storage_s x_0 x_1 x_2 x_3 w_2 w_3 3 w)))
 (let ((?x7414 (storage_s x_0 x_1 x_2 x_3 w_2 w_3 4 w)))
 (= ?x7414 ?x5822))))
 ))
 (let (($x10904 (forall ((n (_ BitVec 6)) )(let ((?x275 (sc_s 3)))
 (let ((?x9043 (bvadd (_ bv62 6) ?x275)))
 (let (($x6666 (bvsle ?x9043 n)))
 (let ((?x4051 (stack_s x_0 x_1 x_2 x_3 w_2 w_3 3 n)))
 (let ((?x814 (stack_s x_0 x_1 x_2 x_3 w_2 w_3 4 n)))
 (or (= ?x814 ?x4051) $x6666)))))))
 ))
 (let ((?x3491 (used_gas_s x_0 x_1 x_2 x_3 w_2 w_3 4)))
 (let (($x7693 (= ?x3491 (+ 3 (used_gas_s x_0 x_1 x_2 x_3 w_2 w_3 3)))))
 (let ((?x275 (sc_s 3)))
 (let ((?x9812 (bvadd (_ bv63 6) ?x275)))
 (let (($x11294 (= ?x2754 (stack_s x_0 x_1 x_2 x_3 w_2 w_3 3 (bvadd (_ bv62 6) ?x275)))))
 (let (($x247 (exc_halt_s 2)))
 (let (($x9523 (or $x247 (not (= ((_ extract 6 6) (bvadd (_ bv1 7) (concat (_ bv0 1) (sc_s 2)))) (_ bv0 1))))))
 (let (($x292 (exc_halt_s 3)))
 (let (($x10078 (forall ((w (_ BitVec 256)) )(let ((?x8168 (storage_s x_0 x_1 x_2 x_3 w_2 w_3 2 w)))
 (let ((?x5822 (storage_s x_0 x_1 x_2 x_3 w_2 w_3 3 w)))
 (= ?x5822 ?x8168))))
 ))
 (let (($x1533 (forall ((n (_ BitVec 6)) )(let ((?x7598 (stack_s x_0 x_1 x_2 x_3 w_2 w_3 2 n)))
 (let ((?x4051 (stack_s x_0 x_1 x_2 x_3 w_2 w_3 3 n)))
 (or (= ?x4051 ?x7598) (bvsle (sc_s 2) n)))))
 ))
 (let ((?x7940 (used_gas_s x_0 x_1 x_2 x_3 w_2 w_3 3)))
 (let (($x2642 (= ?x7940 (+ 3 (used_gas_s x_0 x_1 x_2 x_3 w_2 w_3 2)))))
 (let (($x10066 (= (stack_s x_0 x_1 x_2 x_3 w_2 w_3 3 (sc_s 2)) w_3)))
 (let (($x8154 (not (= ((_ extract 6 6) (bvadd (_ bv1 7) (concat (_ bv0 1) (sc_s 1)))) (_ bv0 1)))))
 (let (($x189 (exc_halt_s 1)))
 (let (($x7266 (forall ((w (_ BitVec 256)) )(let ((?x250 (storage_s x_0 x_1 x_2 x_3 w_2 w_3 1 w)))
 (let ((?x8168 (storage_s x_0 x_1 x_2 x_3 w_2 w_3 2 w)))
 (= ?x8168 ?x250))))
 ))
 (let (($x6391 (forall ((n (_ BitVec 6)) )(let ((?x2279 (stack_s x_0 x_1 x_2 x_3 w_2 w_3 1 n)))
 (let ((?x7598 (stack_s x_0 x_1 x_2 x_3 w_2 w_3 2 n)))
 (or (bvsle (sc_s 1) n) (= ?x7598 ?x2279)))))
 ))
 (let ((?x218 (sc_s 2)))
 (let (($x1362 (= ?x218 (bvadd (_ bv1 6) (sc_s 1)))))
 (let ((?x693 (used_gas_s x_0 x_1 x_2 x_3 w_2 w_3 2)))
 (let (($x1786 (= ?x693 (+ 3 (used_gas_s x_0 x_1 x_2 x_3 w_2 w_3 1)))))
 (let (($x10712 (= (stack_s x_0 x_1 x_2 x_3 w_2 w_3 2 (sc_s 1)) w_2)))
 (let (($x10528 (not (= ((_ extract 6 6) (bvadd (_ bv1 7) (concat (_ bv0 1) ?x72))) (_ bv0 1)))))
 (let (($x7546 (not (bvsle (_ bv0 6) (bvadd (_ bv60 6) ?x72)))))
 (let (($x4129 (forall ((w (_ BitVec 256)) )(let ((?x10076 (storage_s x_0 x_1 x_2 x_3 w_2 w_3 0 w)))
 (let ((?x250 (storage_s x_0 x_1 x_2 x_3 w_2 w_3 1 w)))
 (= ?x250 ?x10076))))
 ))
 (let (($x10265 (forall ((n (_ BitVec 6)) )(let ((?x5034 (stack_s x_0 x_1 x_2 x_3 w_2 w_3 0 n)))
 (let ((?x2279 (stack_s x_0 x_1 x_2 x_3 w_2 w_3 1 n)))
 (let ((?x72 (sc_s 0)))
 (let ((?x1360 (bvadd (_ bv60 6) ?x72)))
 (let (($x1879 (bvsle ?x1360 n)))
 (or $x1879 (= ?x2279 ?x5034))))))))
 ))
 (let ((?x154 (sc_s 1)))
 (let (($x11639 (= ?x154 (bvadd (_ bv1 6) ?x72))))
 (let ((?x171 (used_gas_s x_0 x_1 x_2 x_3 w_2 w_3 1)))
 (let (($x9085 (= (stack_s x_0 x_1 x_2 x_3 w_2 w_3 1 (bvadd (_ bv63 6) ?x72)) (stack_s x_0 x_1 x_2 x_3 w_2 w_3 0 (bvadd (_ bv63 6) ?x72)))))
 (let (($x5502 (= (stack_s x_0 x_1 x_2 x_3 w_2 w_3 1 (bvadd (_ bv62 6) ?x72)) (stack_s x_0 x_1 x_2 x_3 w_2 w_3 0 (bvadd (_ bv62 6) ?x72)))))
 (let (($x6714 (= (stack_s x_0 x_1 x_2 x_3 w_2 w_3 1 (bvadd (_ bv61 6) ?x72)) (stack_s x_0 x_1 x_2 x_3 w_2 w_3 0 (bvadd (_ bv61 6) ?x72)))))
 (let ((?x1360 (bvadd (_ bv60 6) ?x72)))
 (let ((?x10429 (stack_s x_0 x_1 x_2 x_3 w_2 w_3 0 ?x1360)))
 (let (($x5399 (= (stack_s x_0 x_1 x_2 x_3 w_2 w_3 1 (bvadd (_ bv63 6) ?x154)) ?x10429)))
 (let (($x240 (forall ((w (_ BitVec 256)) )(let ((?x10076 (storage_s x_0 x_1 x_2 x_3 w_2 w_3 0 w)))
 (= ?x10076 (_ bv0 256))))
 ))
 (let (($x11623 (= ?x6899 0)))
 (let (($x6901 (not $x57)))
 (let (($x6238 (= (stack_s x_0 x_1 x_2 x_3 w_2 w_3 0 (_ bv3 6)) x_3)))
 (let (($x2036 (= (stack_s x_0 x_1 x_2 x_3 w_2 w_3 0 (_ bv2 6)) x_2)))
 (let (($x11559 (= (stack_s x_0 x_1 x_2 x_3 w_2 w_3 0 (_ bv1 6)) x_1)))
 (let (($x3968 (= (stack_s x_0 x_1 x_2 x_3 w_2 w_3 0 (_ bv0 6)) x_0)))
 (let (($x289 (= ?x72 (_ bv4 6))))
 (and $x289 $x3968 $x11559 $x2036 $x6238 $x6901 $x11623 $x240 $x5399 (= (stack_s x_0 x_1 x_2 x_3 w_2 w_3 1 ?x1360) ?x10429) $x6714 $x5502 $x9085 (= ?x171 (+ 3 ?x6899)) $x11639 $x10265 $x4129 (= $x189 (or $x57 $x7546 $x10528)) $x10712 $x1786 $x1362 $x6391 $x7266 (= $x247 (or $x189 $x8154)) $x10066 $x2642 (= ?x275 (bvadd (_ bv1 6) ?x218)) $x1533 $x10078 (= $x292 $x9523) $x11294 (= ?x7563 (stack_s x_0 x_1 x_2 x_3 w_2 w_3 3 ?x9812)) $x7693 (= ?x4305 ?x275) $x10904 $x10837 $x7702 $x2241 $x7992 (= ?x2843 ?x7563) $x8878 $x15 $x1243 $x9461 $x9501 $x2198 $x2512 $x252 (= ?x926 ?x4319) $x8909 $x2053 $x10655 (= (stack_t x_0 x_1 x_2 x_3 w_2 w_3 1 ?x63) w_2) (= ?x649 (+ 3 ?x5331)) $x6213 $x7232 $x5514 $x9130 $x11759 (= (stack_t x_0 x_1 x_2 x_3 w_2 w_3 2 ?x6800) ?x10060) $x7243 $x4893 $x3532 $x2064 $x5872 $x2756 $x10176 $x6881 (= $x5252 (or $x806 $x1340 $x3508)) $x10750 $x6989 $x8645 $x11114 $x749 (= $x6783 (or $x5252 $x8259)) $x73 $x907 $x58 $x354 $x2307 (not (and $x5324 $x7201 $x3870 $x8437)))))))))))))))))))))))))))))))))))))))))))))))))))))))))))))))))))))))))))))))))))))))))))))))))))))))))))))))))))))))))))))
 )
(check-sat)
(get-proof)
